53685
17, 48, 49, 19, 44, 38, 8, 32, 41, 13, 5, 35, 24, 50, 20, 7, 37, 51, 40, 43, 3, 6, 28, 55, 26, 54, 47, 30, 4, 18, 12, 42, 33, 1, 27, 31, 25, 11, 45, 52, 15, 36, 46, 39, 16, 2, 14, 9, 34, 53, 10, 22, 29, 21, 23
